NAME : X-n561-k42
COMMENT : "Generated by Uchoa, Pecin, Pessoa, Poggi, Subramanian, and Vidal (2013)"
TYPE : CVRP
DIMENSION : 561
EDGE_WEIGHT_TYPE : EUC_2D
CAPACITY : 74
NODE_COORD_SECTION
1 500 500
2 487 949
3 492 770
4 150 556
5 130 719
6 962 393
7 54 890
8 861 705
9 338 631
10 119 741
11 48 296
12 982 827
13 18 954
14 558 698
15 857 337
16 963 72
17 218 46
18 705 484
19 315 3
20 331 358
21 688 156
22 314 338
23 214 428
24 193 866
25 381 924
26 968 10
27 797 382
28 733 544
29 956 878
30 576 270
31 257 778
32 713 605
33 270 940
34 880 401
35 245 168
36 973 29
37 888 919
38 943 703
39 364 248
40 932 60
41 575 18
42 663 990
43 667 351
44 85 708
45 801 330
46 261 91
47 163 953
48 509 249
49 237 336
50 791 356
51 314 168
52 356 726
53 260 412
54 630 144
55 534 255
56 356 444
57 448 320
58 987 333
59 691 109
60 319 476
61 83 716
62 395 818
63 605 769
64 633 162
65 651 644
66 221 4
67 551 912
68 762 604
69 337 41
70 156 318
71 756 357
72 749 173
73 535 235
74 719 700
75 900 564
76 717 4
77 337 441
78 759 103
79 615 132
80 365 498
81 42 268
82 952 2
83 989 303
84 471 821
85 650 215
86 302 881
87 61 459
88 391 405
89 364 170
90 643 744
91 324 620
92 559 449
93 92 914
94 133 607
95 223 949
96 988 415
97 943 616
98 764 6
99 659 250
100 766 532
101 730 338
102 850 489
103 481 467
104 564 296
105 469 531
106 538 121
107 997 183
108 127 966
109 880 538
110 300 985
111 462 125
112 781 68
113 884 92
114 438 673
115 591 658
116 928 894
117 107 816
118 581 799
119 46 288
120 548 0
121 379 725
122 186 490
123 947 161
124 702 712
125 230 722
126 40 891
127 362 568
128 26 614
129 396 104
130 756 658
131 818 433
132 236 62
133 314 56
134 276 466
135 789 828
136 626 677
137 626 156
138 369 506
139 207 461
140 566 842
141 676 871
142 135 983
143 956 181
144 5 209
145 10 57
146 499 617
147 369 482
148 975 194
149 882 465
150 716 147
151 740 993
152 77 480
153 742 233
154 869 824
155 809 987
156 999 514
157 748 391
158 366 917
159 272 875
160 0 9
161 260 359
162 449 208
163 278 711
164 422 445
165 341 448
166 683 498
167 930 690
168 184 567
169 257 360
170 464 101
171 783 645
172 282 884
173 978 688
174 514 349
175 343 552
176 290 171
177 675 414
178 386 86
179 575 26
180 863 973
181 223 412
182 958 176
183 391 824
184 228 93
185 704 946
186 938 995
187 159 343
188 698 106
189 896 169
190 361 937
191 201 120
192 158 852
193 786 630
194 91 909
195 291 333
196 575 931
197 60 763
198 321 837
199 154 302
200 490 215
201 612 394
202 70 159
203 972 987
204 527 340
205 34 241
206 688 334
207 878 485
208 885 205
209 124 413
210 347 330
211 457 540
212 841 478
213 383 907
214 556 135
215 250 31
216 251 90
217 514 112
218 645 252
219 250 482
220 50 740
221 924 309
222 275 198
223 402 554
224 751 389
225 222 168
226 935 8
227 105 551
228 943 769
229 723 250
230 442 730
231 711 917
232 794 873
233 941 506
234 440 930
235 25 735
236 550 461
237 95 780
238 905 187
239 807 232
240 38 560
241 610 303
242 635 599
243 266 273
244 160 961
245 610 199
246 761 276
247 568 865
248 397 721
249 423 983
250 239 847
251 330 653
252 307 662
253 81 59
254 357 955
255 123 426
256 28 874
257 820 222
258 228 758
259 972 613
260 776 209
261 577 160
262 293 429
263 852 781
264 343 789
265 492 948
266 823 661
267 193 141
268 602 498
269 412 553
270 415 158
271 382 42
272 1 486
273 382 334
274 497 141
275 251 476
276 70 672
277 154 539
278 822 847
279 593 573
280 915 235
281 681 808
282 972 28
283 649 106
284 717 124
285 619 669
286 859 453
287 615 988
288 240 554
289 847 459
290 189 652
291 515 845
292 625 873
293 308 612
294 803 434
295 592 840
296 662 92
297 879 454
298 784 7
299 287 625
300 442 982
301 844 461
302 324 736
303 620 43
304 505 739
305 668 124
306 966 56
307 648 984
308 705 165
309 771 758
310 643 891
311 930 487
312 754 167
313 529 232
314 835 623
315 649 742
316 660 65
317 864 278
318 379 515
319 152 618
320 530 125
321 748 966
322 794 447
323 441 116
324 495 888
325 734 107
326 623 131
327 842 466
328 869 433
329 557 697
330 419 952
331 987 50
332 253 589
333 692 664
334 626 817
335 203 625
336 887 426
337 675 757
338 853 362
339 246 660
340 194 527
341 644 895
342 246 544
343 672 902
344 615 71
345 816 214
346 619 709
347 164 411
348 943 552
349 288 411
350 655 956
351 720 138
352 743 460
353 660 568
354 886 352
355 375 573
356 488 528
357 868 505
358 561 673
359 856 126
360 900 17
361 871 351
362 544 696
363 459 776
364 541 257
365 885 418
366 556 622
367 443 205
368 622 955
369 559 106
370 840 180
371 715 74
372 103 373
373 879 347
374 923 503
375 819 389
376 588 69
377 833 434
378 831 507
379 589 695
380 644 24
381 649 15
382 865 351
383 606 985
384 202 605
385 815 96
386 843 150
387 944 461
388 197 668
389 791 305
390 574 826
391 733 935
392 807 679
393 468 732
394 609 656
395 666 76
396 568 205
397 802 286
398 712 80
399 218 449
400 914 624
401 537 863
402 589 996
403 862 484
404 336 666
405 62 678
406 869 431
407 995 86
408 737 314
409 851 39
410 649 895
411 278 480
412 743 173
413 909 106
414 407 905
415 648 939
416 662 941
417 234 442
418 984 38
419 584 667
420 624 9
421 615 986
422 610 959
423 690 580
424 725 65
425 821 470
426 926 460
427 779 78
428 871 94
429 560 796
430 616 675
431 973 189
432 699 19
433 989 17
434 786 720
435 679 710
436 290 543
437 887 516
438 828 401
439 633 696
440 702 64
441 619 966
442 816 442
443 501 973
444 567 951
445 653 134
446 605 770
447 544 972
448 465 620
449 914 529
450 810 491
451 173 471
452 914 548
453 803 366
454 625 38
455 860 113
456 736 168
457 459 508
458 602 884
459 723 145
460 723 696
461 630 76
462 644 653
463 478 427
464 694 521
465 191 588
466 663 791
467 659 188
468 700 411
469 677 609
470 731 580
471 610 105
472 548 155
473 103 585
474 363 542
475 615 90
476 909 473
477 501 937
478 579 980
479 981 71
480 563 789
481 842 508
482 706 155
483 904 130
484 543 567
485 951 14
486 583 963
487 803 5
488 997 36
489 916 439
490 163 492
491 117 572
492 570 35
493 538 21
494 789 108
495 119 667
496 186 678
497 935 216
498 68 669
499 653 116
500 494 839
501 92 755
502 598 137
503 246 562
504 822 278
505 521 156
506 31 373
507 623 53
508 518 956
509 304 521
510 918 124
511 949 54
512 905 132
513 595 694
514 882 445
515 753 45
516 206 365
517 959 557
518 983 471
519 712 137
520 818 383
521 662 684
522 615 759
523 717 11
524 637 657
525 807 419
526 389 951
527 757 185
528 294 482
529 475 464
530 725 970
531 566 971
532 714 5
533 588 715
534 782 808
535 891 415
536 614 647
537 688 869
538 763 96
539 205 708
540 885 493
541 570 972
542 273 424
543 636 107
544 536 88
545 972 618
546 994 28
547 475 786
548 993 34
549 847 29
550 601 7
551 743 509
552 481 877
553 654 629
554 829 429
555 562 686
556 797 386
557 194 570
558 712 142
559 681 104
560 38 680
561 606 919
PICKUP_AND_DELIVERY_SECTION
1 0 0 1000000000 0 0 0
2 0 0 1000000000 0 0 9
3 0 0 1000000000 0 0 7
4 0 0 1000000000 0 0 5
5 0 0 1000000000 0 5 0
6 0 0 1000000000 0 0 8
7 0 0 1000000000 0 0 1
8 0 0 1000000000 0 0 2
9 0 0 1000000000 0 6 0
10 0 0 1000000000 0 0 8
11 0 0 1000000000 0 0 2
12 0 0 1000000000 0 0 6
13 0 0 1000000000 0 7 0
14 0 0 1000000000 0 0 8
15 0 0 1000000000 0 0 8
16 0 0 1000000000 0 0 5
17 0 0 1000000000 0 3 0
18 0 0 1000000000 0 0 4
19 0 0 1000000000 0 0 2
20 0 0 1000000000 0 0 8
21 0 0 1000000000 0 6 0
22 0 0 1000000000 0 0 3
23 0 0 1000000000 0 0 3
24 0 0 1000000000 0 0 4
25 0 0 1000000000 0 4 0
26 0 0 1000000000 0 0 8
27 0 0 1000000000 0 0 8
28 0 0 1000000000 0 0 10
29 0 0 1000000000 0 1 0
30 0 0 1000000000 0 0 1
31 0 0 1000000000 0 0 9
32 0 0 1000000000 0 0 9
33 0 0 1000000000 0 10 0
34 0 0 1000000000 0 0 10
35 0 0 1000000000 0 0 5
36 0 0 1000000000 0 0 5
37 0 0 1000000000 0 6 0
38 0 0 1000000000 0 0 4
39 0 0 1000000000 0 0 9
40 0 0 1000000000 0 0 3
41 0 0 1000000000 0 8 0
42 0 0 1000000000 0 0 4
43 0 0 1000000000 0 0 5
44 0 0 1000000000 0 0 9
45 0 0 1000000000 0 4 0
46 0 0 1000000000 0 0 9
47 0 0 1000000000 0 0 1
48 0 0 1000000000 0 0 7
49 0 0 1000000000 0 8 0
50 0 0 1000000000 0 0 4
51 0 0 1000000000 0 0 5
52 0 0 1000000000 0 0 9
53 0 0 1000000000 0 3 0
54 0 0 1000000000 0 0 8
55 0 0 1000000000 0 0 6
56 0 0 1000000000 0 0 6
57 0 0 1000000000 0 8 0
58 0 0 1000000000 0 0 6
59 0 0 1000000000 0 0 8
60 0 0 1000000000 0 0 6
61 0 0 1000000000 0 10 0
62 0 0 1000000000 0 0 3
63 0 0 1000000000 0 0 9
64 0 0 1000000000 0 0 8
65 0 0 1000000000 0 6 0
66 0 0 1000000000 0 0 6
67 0 0 1000000000 0 0 4
68 0 0 1000000000 0 0 3
69 0 0 1000000000 0 7 0
70 0 0 1000000000 0 0 4
71 0 0 1000000000 0 0 6
72 0 0 1000000000 0 0 10
73 0 0 1000000000 0 7 0
74 0 0 1000000000 0 0 2
75 0 0 1000000000 0 0 7
76 0 0 1000000000 0 0 5
77 0 0 1000000000 0 4 0
78 0 0 1000000000 0 0 3
79 0 0 1000000000 0 0 8
80 0 0 1000000000 0 0 1
81 0 0 1000000000 0 1 0
82 0 0 1000000000 0 0 5
83 0 0 1000000000 0 0 8
84 0 0 1000000000 0 0 2
85 0 0 1000000000 0 9 0
86 0 0 1000000000 0 0 6
87 0 0 1000000000 0 0 10
88 0 0 1000000000 0 0 8
89 0 0 1000000000 0 1 0
90 0 0 1000000000 0 0 6
91 0 0 1000000000 0 0 2
92 0 0 1000000000 0 0 4
93 0 0 1000000000 0 7 0
94 0 0 1000000000 0 0 3
95 0 0 1000000000 0 0 9
96 0 0 1000000000 0 0 9
97 0 0 1000000000 0 6 0
98 0 0 1000000000 0 0 8
99 0 0 1000000000 0 0 3
100 0 0 1000000000 0 0 5
101 0 0 1000000000 0 6 0
102 0 0 1000000000 0 0 8
103 0 0 1000000000 0 0 4
104 0 0 1000000000 0 0 3
105 0 0 1000000000 0 9 0
106 0 0 1000000000 0 0 4
107 0 0 1000000000 0 0 7
108 0 0 1000000000 0 0 1
109 0 0 1000000000 0 8 0
110 0 0 1000000000 0 0 9
111 0 0 1000000000 0 0 2
112 0 0 1000000000 0 0 8
113 0 0 1000000000 0 6 0
114 0 0 1000000000 0 0 1
115 0 0 1000000000 0 0 9
116 0 0 1000000000 0 0 2
117 0 0 1000000000 0 5 0
118 0 0 1000000000 0 0 7
119 0 0 1000000000 0 0 7
120 0 0 1000000000 0 0 2
121 0 0 1000000000 0 10 0
122 0 0 1000000000 0 0 4
123 0 0 1000000000 0 0 8
124 0 0 1000000000 0 0 9
125 0 0 1000000000 0 2 0
126 0 0 1000000000 0 0 9
127 0 0 1000000000 0 0 2
128 0 0 1000000000 0 0 5
129 0 0 1000000000 0 7 0
130 0 0 1000000000 0 0 3
131 0 0 1000000000 0 0 9
132 0 0 1000000000 0 0 8
133 0 0 1000000000 0 6 0
134 0 0 1000000000 0 0 4
135 0 0 1000000000 0 0 8
136 0 0 1000000000 0 0 4
137 0 0 1000000000 0 8 0
138 0 0 1000000000 0 0 6
139 0 0 1000000000 0 0 3
140 0 0 1000000000 0 0 3
141 0 0 1000000000 0 5 0
142 0 0 1000000000 0 0 5
143 0 0 1000000000 0 0 5
144 0 0 1000000000 0 0 10
145 0 0 1000000000 0 8 0
146 0 0 1000000000 0 0 6
147 0 0 1000000000 0 0 7
148 0 0 1000000000 0 0 7
149 0 0 1000000000 0 2 0
150 0 0 1000000000 0 0 1
151 0 0 1000000000 0 0 10
152 0 0 1000000000 0 0 1
153 0 0 1000000000 0 9 0
154 0 0 1000000000 0 0 3
155 0 0 1000000000 0 0 3
156 0 0 1000000000 0 0 10
157 0 0 1000000000 0 6 0
158 0 0 1000000000 0 0 1
159 0 0 1000000000 0 0 10
160 0 0 1000000000 0 0 6
161 0 0 1000000000 0 3 0
162 0 0 1000000000 0 0 3
163 0 0 1000000000 0 0 10
164 0 0 1000000000 0 0 8
165 0 0 1000000000 0 6 0
166 0 0 1000000000 0 0 2
167 0 0 1000000000 0 0 9
168 0 0 1000000000 0 0 5
169 0 0 1000000000 0 1 0
170 0 0 1000000000 0 0 1
171 0 0 1000000000 0 0 2
172 0 0 1000000000 0 0 8
173 0 0 1000000000 0 7 0
174 0 0 1000000000 0 0 2
175 0 0 1000000000 0 0 9
176 0 0 1000000000 0 0 9
177 0 0 1000000000 0 5 0
178 0 0 1000000000 0 0 3
179 0 0 1000000000 0 0 8
180 0 0 1000000000 0 0 2
181 0 0 1000000000 0 8 0
182 0 0 1000000000 0 0 6
183 0 0 1000000000 0 0 3
184 0 0 1000000000 0 0 5
185 0 0 1000000000 0 4 0
186 0 0 1000000000 0 0 7
187 0 0 1000000000 0 0 5
188 0 0 1000000000 0 0 1
189 0 0 1000000000 0 10 0
190 0 0 1000000000 0 0 8
191 0 0 1000000000 0 0 7
192 0 0 1000000000 0 0 5
193 0 0 1000000000 0 10 0
194 0 0 1000000000 0 0 4
195 0 0 1000000000 0 0 4
196 0 0 1000000000 0 0 2
197 0 0 1000000000 0 7 0
198 0 0 1000000000 0 0 1
199 0 0 1000000000 0 0 1
200 0 0 1000000000 0 0 8
201 0 0 1000000000 0 2 0
202 0 0 1000000000 0 0 3
203 0 0 1000000000 0 0 1
204 0 0 1000000000 0 0 2
205 0 0 1000000000 0 3 0
206 0 0 1000000000 0 0 9
207 0 0 1000000000 0 0 9
208 0 0 1000000000 0 0 5
209 0 0 1000000000 0 9 0
210 0 0 1000000000 0 0 7
211 0 0 1000000000 0 0 2
212 0 0 1000000000 0 0 4
213 0 0 1000000000 0 6 0
214 0 0 1000000000 0 0 1
215 0 0 1000000000 0 0 7
216 0 0 1000000000 0 0 6
217 0 0 1000000000 0 10 0
218 0 0 1000000000 0 0 10
219 0 0 1000000000 0 0 2
220 0 0 1000000000 0 0 10
221 0 0 1000000000 0 3 0
222 0 0 1000000000 0 0 8
223 0 0 1000000000 0 0 5
224 0 0 1000000000 0 0 2
225 0 0 1000000000 0 3 0
226 0 0 1000000000 0 0 8
227 0 0 1000000000 0 0 8
228 0 0 1000000000 0 0 7
229 0 0 1000000000 0 9 0
230 0 0 1000000000 0 0 9
231 0 0 1000000000 0 0 6
232 0 0 1000000000 0 0 3
233 0 0 1000000000 0 6 0
234 0 0 1000000000 0 0 6
235 0 0 1000000000 0 0 10
236 0 0 1000000000 0 0 2
237 0 0 1000000000 0 3 0
238 0 0 1000000000 0 0 3
239 0 0 1000000000 0 0 6
240 0 0 1000000000 0 0 1
241 0 0 1000000000 0 7 0
242 0 0 1000000000 0 0 3
243 0 0 1000000000 0 0 4
244 0 0 1000000000 0 0 10
245 0 0 1000000000 0 4 0
246 0 0 1000000000 0 0 5
247 0 0 1000000000 0 0 5
248 0 0 1000000000 0 0 6
249 0 0 1000000000 0 2 0
250 0 0 1000000000 0 0 7
251 0 0 1000000000 0 0 2
252 0 0 1000000000 0 0 3
253 0 0 1000000000 0 6 0
254 0 0 1000000000 0 0 2
255 0 0 1000000000 0 0 7
256 0 0 1000000000 0 0 10
257 0 0 1000000000 0 8 0
258 0 0 1000000000 0 0 10
259 0 0 1000000000 0 0 1
260 0 0 1000000000 0 0 8
261 0 0 1000000000 0 1 0
262 0 0 1000000000 0 0 7
263 0 0 1000000000 0 0 6
264 0 0 1000000000 0 0 3
265 0 0 1000000000 0 10 0
266 0 0 1000000000 0 0 4
267 0 0 1000000000 0 0 5
268 0 0 1000000000 0 0 5
269 0 0 1000000000 0 9 0
270 0 0 1000000000 0 0 5
271 0 0 1000000000 0 0 4
272 0 0 1000000000 0 0 8
273 0 0 1000000000 0 5 0
274 0 0 1000000000 0 0 3
275 0 0 1000000000 0 0 4
276 0 0 1000000000 0 0 7
277 0 0 1000000000 0 4 0
278 0 0 1000000000 0 0 7
279 0 0 1000000000 0 0 2
280 0 0 1000000000 0 0 6
281 0 0 1000000000 0 6 0
282 0 0 1000000000 0 0 1
283 0 0 1000000000 0 0 2
284 0 0 1000000000 0 0 7
285 0 0 1000000000 0 10 0
286 0 0 1000000000 0 0 7
287 0 0 1000000000 0 0 6
288 0 0 1000000000 0 0 9
289 0 0 1000000000 0 10 0
290 0 0 1000000000 0 0 5
291 0 0 1000000000 0 0 1
292 0 0 1000000000 0 0 4
293 0 0 1000000000 0 6 0
294 0 0 1000000000 0 0 2
295 0 0 1000000000 0 0 6
296 0 0 1000000000 0 0 9
297 0 0 1000000000 0 9 0
298 0 0 1000000000 0 0 2
299 0 0 1000000000 0 0 5
300 0 0 1000000000 0 0 7
301 0 0 1000000000 0 10 0
302 0 0 1000000000 0 0 3
303 0 0 1000000000 0 0 5
304 0 0 1000000000 0 0 8
305 0 0 1000000000 0 7 0
306 0 0 1000000000 0 0 2
307 0 0 1000000000 0 0 10
308 0 0 1000000000 0 0 10
309 0 0 1000000000 0 5 0
310 0 0 1000000000 0 0 7
311 0 0 1000000000 0 0 8
312 0 0 1000000000 0 0 8
313 0 0 1000000000 0 7 0
314 0 0 1000000000 0 0 6
315 0 0 1000000000 0 0 1
316 0 0 1000000000 0 0 8
317 0 0 1000000000 0 4 0
318 0 0 1000000000 0 0 3
319 0 0 1000000000 0 0 5
320 0 0 1000000000 0 0 2
321 0 0 1000000000 0 4 0
322 0 0 1000000000 0 0 5
323 0 0 1000000000 0 0 4
324 0 0 1000000000 0 0 9
325 0 0 1000000000 0 2 0
326 0 0 1000000000 0 0 4
327 0 0 1000000000 0 0 7
328 0 0 1000000000 0 0 2
329 0 0 1000000000 0 6 0
330 0 0 1000000000 0 0 3
331 0 0 1000000000 0 0 7
332 0 0 1000000000 0 0 4
333 0 0 1000000000 0 7 0
334 0 0 1000000000 0 0 7
335 0 0 1000000000 0 0 2
336 0 0 1000000000 0 0 2
337 0 0 1000000000 0 9 0
338 0 0 1000000000 0 0 5
339 0 0 1000000000 0 0 8
340 0 0 1000000000 0 0 7
341 0 0 1000000000 0 9 0
342 0 0 1000000000 0 0 4
343 0 0 1000000000 0 0 7
344 0 0 1000000000 0 0 3
345 0 0 1000000000 0 1 0
346 0 0 1000000000 0 0 6
347 0 0 1000000000 0 0 6
348 0 0 1000000000 0 0 3
349 0 0 1000000000 0 8 0
350 0 0 1000000000 0 0 9
351 0 0 1000000000 0 0 6
352 0 0 1000000000 0 0 10
353 0 0 1000000000 0 5 0
354 0 0 1000000000 0 0 6
355 0 0 1000000000 0 0 9
356 0 0 1000000000 0 0 2
357 0 0 1000000000 0 10 0
358 0 0 1000000000 0 0 2
359 0 0 1000000000 0 0 3
360 0 0 1000000000 0 0 5
361 0 0 1000000000 0 9 0
362 0 0 1000000000 0 0 1
363 0 0 1000000000 0 0 10
364 0 0 1000000000 0 0 4
365 0 0 1000000000 0 10 0
366 0 0 1000000000 0 0 5
367 0 0 1000000000 0 0 8
368 0 0 1000000000 0 0 2
369 0 0 1000000000 0 6 0
370 0 0 1000000000 0 0 5
371 0 0 1000000000 0 0 7
372 0 0 1000000000 0 0 4
373 0 0 1000000000 0 5 0
374 0 0 1000000000 0 0 6
375 0 0 1000000000 0 0 2
376 0 0 1000000000 0 0 4
377 0 0 1000000000 0 2 0
378 0 0 1000000000 0 0 6
379 0 0 1000000000 0 0 5
380 0 0 1000000000 0 0 8
381 0 0 1000000000 0 4 0
382 0 0 1000000000 0 0 4
383 0 0 1000000000 0 0 3
384 0 0 1000000000 0 0 5
385 0 0 1000000000 0 9 0
386 0 0 1000000000 0 0 1
387 0 0 1000000000 0 0 4
388 0 0 1000000000 0 0 7
389 0 0 1000000000 0 1 0
390 0 0 1000000000 0 0 5
391 0 0 1000000000 0 0 6
392 0 0 1000000000 0 0 8
393 0 0 1000000000 0 3 0
394 0 0 1000000000 0 0 1
395 0 0 1000000000 0 0 10
396 0 0 1000000000 0 0 2
397 0 0 1000000000 0 9 0
398 0 0 1000000000 0 0 7
399 0 0 1000000000 0 0 6
400 0 0 1000000000 0 0 9
401 0 0 1000000000 0 3 0
402 0 0 1000000000 0 0 6
403 0 0 1000000000 0 0 5
404 0 0 1000000000 0 0 8
405 0 0 1000000000 0 3 0
406 0 0 1000000000 0 0 3
407 0 0 1000000000 0 0 6
408 0 0 1000000000 0 0 1
409 0 0 1000000000 0 6 0
410 0 0 1000000000 0 0 10
411 0 0 1000000000 0 0 6
412 0 0 1000000000 0 0 1
413 0 0 1000000000 0 2 0
414 0 0 1000000000 0 0 7
415 0 0 1000000000 0 0 7
416 0 0 1000000000 0 0 8
417 0 0 1000000000 0 1 0
418 0 0 1000000000 0 0 4
419 0 0 1000000000 0 0 7
420 0 0 1000000000 0 0 3
421 0 0 1000000000 0 5 0
422 0 0 1000000000 0 0 3
423 0 0 1000000000 0 0 9
424 0 0 1000000000 0 0 4
425 0 0 1000000000 0 2 0
426 0 0 1000000000 0 0 7
427 0 0 1000000000 0 0 6
428 0 0 1000000000 0 0 5
429 0 0 1000000000 0 4 0
430 0 0 1000000000 0 0 1
431 0 0 1000000000 0 0 8
432 0 0 1000000000 0 0 5
433 0 0 1000000000 0 6 0
434 0 0 1000000000 0 0 2
435 0 0 1000000000 0 0 9
436 0 0 1000000000 0 0 5
437 0 0 1000000000 0 5 0
438 0 0 1000000000 0 0 3
439 0 0 1000000000 0 0 2
440 0 0 1000000000 0 0 5
441 0 0 1000000000 0 9 0
442 0 0 1000000000 0 0 1
443 0 0 1000000000 0 0 6
444 0 0 1000000000 0 0 7
445 0 0 1000000000 0 1 0
446 0 0 1000000000 0 0 8
447 0 0 1000000000 0 0 3
448 0 0 1000000000 0 0 10
449 0 0 1000000000 0 6 0
450 0 0 1000000000 0 0 10
451 0 0 1000000000 0 0 5
452 0 0 1000000000 0 0 5
453 0 0 1000000000 0 2 0
454 0 0 1000000000 0 0 3
455 0 0 1000000000 0 0 5
456 0 0 1000000000 0 0 4
457 0 0 1000000000 0 1 0
458 0 0 1000000000 0 0 2
459 0 0 1000000000 0 0 5
460 0 0 1000000000 0 0 1
461 0 0 1000000000 0 7 0
462 0 0 1000000000 0 0 8
463 0 0 1000000000 0 0 8
464 0 0 1000000000 0 0 2
465 0 0 1000000000 0 10 0
466 0 0 1000000000 0 0 8
467 0 0 1000000000 0 0 8
468 0 0 1000000000 0 0 1
469 0 0 1000000000 0 9 0
470 0 0 1000000000 0 0 6
471 0 0 1000000000 0 0 1
472 0 0 1000000000 0 0 10
473 0 0 1000000000 0 5 0
474 0 0 1000000000 0 0 4
475 0 0 1000000000 0 0 4
476 0 0 1000000000 0 0 3
477 0 0 1000000000 0 2 0
478 0 0 1000000000 0 0 5
479 0 0 1000000000 0 0 2
480 0 0 1000000000 0 0 4
481 0 0 1000000000 0 10 0
482 0 0 1000000000 0 0 2
483 0 0 1000000000 0 0 6
484 0 0 1000000000 0 0 10
485 0 0 1000000000 0 2 0
486 0 0 1000000000 0 0 6
487 0 0 1000000000 0 0 6
488 0 0 1000000000 0 0 9
489 0 0 1000000000 0 7 0
490 0 0 1000000000 0 0 1
491 0 0 1000000000 0 0 6
492 0 0 1000000000 0 0 5
493 0 0 1000000000 0 7 0
494 0 0 1000000000 0 0 5
495 0 0 1000000000 0 0 7
496 0 0 1000000000 0 0 1
497 0 0 1000000000 0 1 0
498 0 0 1000000000 0 0 7
499 0 0 1000000000 0 0 8
500 0 0 1000000000 0 0 4
501 0 0 1000000000 0 7 0
502 0 0 1000000000 0 0 1
503 0 0 1000000000 0 0 8
504 0 0 1000000000 0 0 6
505 0 0 1000000000 0 10 0
506 0 0 1000000000 0 0 3
507 0 0 1000000000 0 0 7
508 0 0 1000000000 0 0 6
509 0 0 1000000000 0 5 0
510 0 0 1000000000 0 0 7
511 0 0 1000000000 0 0 8
512 0 0 1000000000 0 0 1
513 0 0 1000000000 0 8 0
514 0 0 1000000000 0 0 4
515 0 0 1000000000 0 0 7
516 0 0 1000000000 0 0 5
517 0 0 1000000000 0 6 0
518 0 0 1000000000 0 0 10
519 0 0 1000000000 0 0 7
520 0 0 1000000000 0 0 10
521 0 0 1000000000 0 5 0
522 0 0 1000000000 0 0 8
523 0 0 1000000000 0 0 6
524 0 0 1000000000 0 0 3
525 0 0 1000000000 0 4 0
526 0 0 1000000000 0 0 2
527 0 0 1000000000 0 0 10
528 0 0 1000000000 0 0 3
529 0 0 1000000000 0 3 0
530 0 0 1000000000 0 0 4
531 0 0 1000000000 0 0 8
532 0 0 1000000000 0 0 10
533 0 0 1000000000 0 10 0
534 0 0 1000000000 0 0 7
535 0 0 1000000000 0 0 5
536 0 0 1000000000 0 0 4
537 0 0 1000000000 0 9 0
538 0 0 1000000000 0 0 1
539 0 0 1000000000 0 0 4
540 0 0 1000000000 0 0 3
541 0 0 1000000000 0 2 0
542 0 0 1000000000 0 0 3
543 0 0 1000000000 0 0 3
544 0 0 1000000000 0 0 1
545 0 0 1000000000 0 6 0
546 0 0 1000000000 0 0 2
547 0 0 1000000000 0 0 8
548 0 0 1000000000 0 0 6
549 0 0 1000000000 0 4 0
550 0 0 1000000000 0 0 5
551 0 0 1000000000 0 0 8
552 0 0 1000000000 0 0 1
553 0 0 1000000000 0 10 0
554 0 0 1000000000 0 0 7
555 0 0 1000000000 0 0 3
556 0 0 1000000000 0 0 4
557 0 0 1000000000 0 9 0
558 0 0 1000000000 0 0 7
559 0 0 1000000000 0 0 8
560 0 0 1000000000 0 0 1
561 0 0 1000000000 0 2 0
